problem_generation/data/GISP/train/er_n=61_m=1105_p=0.60_SET2_setparam=100.00_alpha=0.50_323.lp
maximize
OBJ:100x0 + 100x1 + 100x2 + 100x3 + 100x4 + 100x5 + 100x6 + 100x7 + 100x8 + 100x9 + 100x10 + 100x11 + 100x12 + 100x13 + 100x14 + 100x15 + 100x16 + 100x17 + 100x18 + 100x19 + 100x20 + 100x21 + 100x22 + 100x23 + 100x24 + 100x25 + 100x26 + 100x27 + 100x28 + 100x29 + 100x30 + 100x31 + 100x32 + 100x33 + 100x34 + 100x35 + 100x36 + 100x37 + 100x38 + 100x39 + 100x40 + 100x41 + 100x42 + 100x43 + 100x44 + 100x45 + 100x46 + 100x47 + 100x48 + 100x49 + 100x50 + 100x51 + 100x52 + 100x53 + 100x54 + 100x55 + 100x56 + 100x57 + 100x58 + 100x59 + 100x60 - y15_30 - y7_35 - y29_41 - y40_41 - y21_37 - y6_48 - y21_46 - y0_23 - y40_59 - y41_51 - y25_34 - y44_56 - y2_50 - y14_15 - y43_60 - y22_46 - y15_16 - y7_12 - y17_53 - y18_30 - y9_49 - y5_60 - y9_58 - y6_43 - y29_45 - y29_54 - y40_54 - y21_59 - y10_22 - y25_29 - y2_36 - y22_23 - y51_59 - y2_54 - y22_32 - y14_28 - y28_39 - y6_38 - y48_53 - y21_36 - y40_58 - y21_54 - y10_26 - y10_35 - y2_40 - y3_5 - y25_42 - y2_49 - y32_59 - y1_53 - y35_55 - y16_51 - y7_11 - y9_30 - y5_41 - y6_15 - y21_22 - y29_35 - y29_44 - y6_51 - y21_49 - y10_21 - y2_17 - y20_53 - y31_53 - y23_58 - y2_35 - y43_45 - y14_18 - y43_54 - y1_48 - y13_59 - y24_59 - y35_59 - y16_55 - y28_29 - y9_25 - y36_51 - y17_47 - y6_10 - y28_47 - y21_26 - y27_60 - y6_37 - y21_35 - y10_16 - y12_44 - y31_57 - y23_53 - y13_36 - y1_43 - y24_45 - y32_58 - y9_11 - y16_59 - y36_37 - y28_33 - y6_14 - y6_23 - y27_55 - y8_51 - y42_53 - y11_56 - y31_43 - y12_39 - y23_39 - y2_16 - y20_52 - y31_52 - y23_48 - y4_44 - y12_57 - y1_29 - y24_31 - y43_44 - y13_40 - y35_40 - y1_47 - y13_49 - y16_45 - y1_56 - y35_58 - y5_17 - y46_55 - y38_51 - y49_51 - y49_60 - y8_46 - y19_46 - y8_55 - y30_55 - y11_51 - y0_60 - y20_38 - y31_38 - y20_47 - y4_30 - y12_43 - y23_43 - y1_15 - y13_26 - y24_26 - y4_57 - y24_35 - y16_31 - y13_44 - y16_40 - y1_51 - y46_50 - y5_21 - y9_19 - y38_55 - y5_30 - y49_55 - y7_58 - y6_13 - y0_37 - y0_46 - y11_46 - y8_59 - y30_59 - y12_20 - y39_46 - y23_29 - y31_51 - y12_47 - y23_47 - y4_43 - y23_56 - y34_53 - y45_53 - y16_26 - y22_60 - y46_54 - y38_50 - y38_59 - y18_53 - y8_27 - y30_45 - y30_54 - y0_50 - y11_59 - y23_24 - y41_60 - y20_37 - y23_33 - y12_42 - y34_39 - y1_14 - y45_48 - y37_44 - y16_21 - y45_57 - y26_34 - y5_11 - y26_43 - y15_52 - y26_52 - y49_54 - y18_57 - y0_18 - y30_31 - y27_53 - y0_45 - y0_54 - y12_19 - y41_55 - y20_32 - y33_60 - y12_37 - y1_9 - y34_43 - y1_18 - y34_52 - y3_46 - y14_55 - y15_20 - y15_29 - y26_29 - y7_25 - y15_47 - y26_47 - y38_49 - y7_43 - y0_4 - y27_30 - y0_13 - y27_39 - y0_22 - y8_35 - y30_44 - y0_40 - y12_14 - y41_50 - y33_46 - y44_46 - y4_19 - y10_53 - y44_55 - y25_51 - y2_58 - y22_36 - y3_50 - y14_50 - y18_29 - y26_42 - y18_38 - y0_17 - y11_17 - y8_30 - y19_30 - y41_45 - y25_37 - y4_14 - y10_48 - y33_50 - y44_50 - y10_57 - y44_59 - y2_53 - y25_55 - y34_42 - y45_51 - y14_45 - y14_54 - y37_56 - y7_15 - y7_24 - y18_24 - y36_60 - y47_60 - y7_33 - y18_42 - y0_3 - y29_48 - y21_44 - y0_21 - y10_43 - y44_54 - y2_48 - y7_19 - y18_19 - y17_51 - y17_60 - y28_60 - y18_37 - y0_16 - y11_16 - y10_29 - y2_25 - y2_34 - y10_47 - y44_49 - y10_56 - y2_52 - y14_17 - y13_58 - y24_58 - y3_35 - y3_44 - y14_44 - y36_41 - y28_46 - y36_59 - y47_59 - y6_27 - y9_60 - y29_38 - y21_34 - y6_45 - y2_20 - y2_29 - y25_31 - y2_38 - y32_48 - y3_21 - y14_21 - y32_57 - y14_30 - y7_9 - y55_58 - y28_41 - y36_54 - y17_50 - y5_57 - y29_51 - y21_47 - y10_19 - y39_55 - y25_35 - y3_7 - y32_43 - y24_39 - y35_39 - y3_16 - y14_16 - y32_52 - y35_48 - y1_55 - y24_57 - y28_36 - y28_45 - y6_8 - y36_58 - y47_58 - y17_54 - y9_59 - y21_24 - y21_33 - y21_42 - y39_50 - y20_46 - y32_38 - y13_34 - y35_43 - y1_50 - y28_40 - y9_36 - y5_56 - y6_21 - y50_55 - y42_51 - y6_39 - y39_45 - y2_14 - y20_59 - y31_59 - y32_33 - y1_27 - y24_29 - y32_42 - y16_25 - y13_38 - y32_51 - y16_34 - y24_47 - y1_54 - y46_53 - y9_13 - y36_39 - y49_58 - y17_35 - y9_31 - y42_46 - y42_55 - y0_49 - y39_40 - y20_36 - y31_36 - y20_45 - y31_45 - y20_54 - y31_54 - y13_15 - y4_55 - y1_31 - y13_33 - y1_40 - y13_42 - y16_38 - y35_51 - y16_47 - y9_26 - y15_60 - y9_35 - y30_39 - y50_54 - y8_48 - y19_48 - y30_48 - y0_44 - y20_22 - y0_53 - y11_53 - y12_18 - y23_27 - y4_23 - y12_36 - y23_36 - y20_49 - y31_49 - y1_8 - y12_54 - y13_19 - y53_55 - y4_59 - y34_60 - y45_60 - y24_37 - y35_37 - y16_33 - y1_44 - y46_52 - y15_46 - y38_48 - y9_21 - y5_32 - y8_25 - y27_38 - y30_34 - y0_39 - y19_52 - y0_48 - y11_48 - y12_31 - y12_40 - y1_3 - y23_40 - y4_36 - y23_49 - y13_14 - y4_45 - y4_54 - y34_55 - y1_30 - y1_39 - y3_58 - y5_9 - y26_41 - y46_56 - y7_55 - y27_33 - y19_38 - y27_51 - y11_34 - y20_21 - y52_53 - y31_39 - y4_22 - y44_58 - y23_44 - y4_40 - y13_18 - y53_54 - y22_57 - y56_59 - y26_36 - y7_32 - y38_47 - y7_41 - y49_56 - y8_15 - y7_59 - y8_24 - y27_37 - y27_46 - y0_29 - y19_42 - y11_38 - y19_51 - y30_51 - y11_47 - y41_48 - y4_8 - y52_57 - y4_17 - y44_53 - y25_49 - y1_2 - y4_35 - y22_34 - y34_36 - y34_45 - y53_58 - y3_39 - y22_52 - y3_57 - y7_18 - y26_40 - y26_49 - y7_54 - y11_15 - y0_24 - y29_60 - y40_60 - y21_56 - y0_33 - y33_39 - y33_48 - y25_44 - y33_57 - y44_57 - y2_51 - y2_60 - y14_34 - y34_49 - y14_43 - y45_58 - y14_52 - y26_35 - y7_31 - y7_40 - y48_50 - y29_46 - y19_23 - y48_59 - y0_19 - y0_28 - y11_28 - y10_41 - y4_16 - y3_29 - y22_42 - y3_38 - y22_51 - y3_56
 Subject to
C1: x0+x3-y0_3 <=1 
C2: x0+x4-y0_4 <=1 
C3: x0+x5 <=1 
C4: x0+x9 <=1 
C5: x0+x11 <=1 
C6: x0+x12 <=1 
C7: x0+x13-y0_13 <=1 
C8: x0+x14 <=1 
C9: x0+x16-y0_16 <=1 
C10: x0+x17-y0_17 <=1 
C11: x0+x18-y0_18 <=1 
C12: x0+x19-y0_19 <=1 
C13: x0+x20 <=1 
C14: x0+x21-y0_21 <=1 
C15: x0+x22-y0_22 <=1 
C16: x0+x23-y0_23 <=1 
C17: x0+x24-y0_24 <=1 
C18: x0+x28-y0_28 <=1 
C19: x0+x29-y0_29 <=1 
C20: x0+x30 <=1 
C21: x0+x32 <=1 
C22: x0+x33-y0_33 <=1 
C23: x0+x34 <=1 
C24: x0+x35 <=1 
C25: x0+x36 <=1 
C26: x0+x37-y0_37 <=1 
C27: x0+x39-y0_39 <=1 
C28: x0+x40-y0_40 <=1 
C29: x0+x41 <=1 
C30: x0+x44-y0_44 <=1 
C31: x0+x45-y0_45 <=1 
C32: x0+x46-y0_46 <=1 
C33: x0+x48-y0_48 <=1 
C34: x0+x49-y0_49 <=1 
C35: x0+x50-y0_50 <=1 
C36: x0+x51 <=1 
C37: x0+x52 <=1 
C38: x0+x53-y0_53 <=1 
C39: x0+x54-y0_54 <=1 
C40: x0+x56 <=1 
C41: x0+x59 <=1 
C42: x0+x60-y0_60 <=1 
C43: x1+x2-y1_2 <=1 
C44: x1+x3-y1_3 <=1 
C45: x1+x7 <=1 
C46: x1+x8-y1_8 <=1 
C47: x1+x9-y1_9 <=1 
C48: x1+x10 <=1 
C49: x1+x12 <=1 
C50: x1+x13 <=1 
C51: x1+x14-y1_14 <=1 
C52: x1+x15-y1_15 <=1 
C53: x1+x17 <=1 
C54: x1+x18-y1_18 <=1 
C55: x1+x19 <=1 
C56: x1+x20 <=1 
C57: x1+x27-y1_27 <=1 
C58: x1+x29-y1_29 <=1 
C59: x1+x30-y1_30 <=1 
C60: x1+x31-y1_31 <=1 
C61: x1+x32 <=1 
C62: x1+x33 <=1 
C63: x1+x37 <=1 
C64: x1+x39-y1_39 <=1 
C65: x1+x40-y1_40 <=1 
C66: x1+x43-y1_43 <=1 
C67: x1+x44-y1_44 <=1 
C68: x1+x45 <=1 
C69: x1+x47-y1_47 <=1 
C70: x1+x48-y1_48 <=1 
C71: x1+x50-y1_50 <=1 
C72: x1+x51-y1_51 <=1 
C73: x1+x52 <=1 
C74: x1+x53-y1_53 <=1 
C75: x1+x54-y1_54 <=1 
C76: x1+x55-y1_55 <=1 
C77: x1+x56-y1_56 <=1 
C78: x1+x57 <=1 
C79: x1+x59 <=1 
C80: x2+x3 <=1 
C81: x2+x5 <=1 
C82: x2+x6 <=1 
C83: x2+x7 <=1 
C84: x2+x11 <=1 
C85: x2+x12 <=1 
C86: x2+x14-y2_14 <=1 
C87: x2+x15 <=1 
C88: x2+x16-y2_16 <=1 
C89: x2+x17-y2_17 <=1 
C90: x2+x20-y2_20 <=1 
C91: x2+x21 <=1 
C92: x2+x22 <=1 
C93: x2+x24 <=1 
C94: x2+x25-y2_25 <=1 
C95: x2+x27 <=1 
C96: x2+x28 <=1 
C97: x2+x29-y2_29 <=1 
C98: x2+x32 <=1 
C99: x2+x33 <=1 
C100: x2+x34-y2_34 <=1 
C101: x2+x35-y2_35 <=1 
C102: x2+x36-y2_36 <=1 
C103: x2+x37 <=1 
C104: x2+x38-y2_38 <=1 
C105: x2+x40-y2_40 <=1 
C106: x2+x41 <=1 
C107: x2+x45 <=1 
C108: x2+x48-y2_48 <=1 
C109: x2+x49-y2_49 <=1 
C110: x2+x50-y2_50 <=1 
C111: x2+x51-y2_51 <=1 
C112: x2+x52-y2_52 <=1 
C113: x2+x53-y2_53 <=1 
C114: x2+x54-y2_54 <=1 
C115: x2+x55 <=1 
C116: x2+x58-y2_58 <=1 
C117: x2+x59 <=1 
C118: x2+x60-y2_60 <=1 
C119: x3+x4 <=1 
C120: x3+x5-y3_5 <=1 
C121: x3+x7-y3_7 <=1 
C122: x3+x9 <=1 
C123: x3+x12 <=1 
C124: x3+x13 <=1 
C125: x3+x14 <=1 
C126: x3+x16-y3_16 <=1 
C127: x3+x21-y3_21 <=1 
C128: x3+x23 <=1 
C129: x3+x29-y3_29 <=1 
C130: x3+x35-y3_35 <=1 
C131: x3+x38-y3_38 <=1 
C132: x3+x39-y3_39 <=1 
C133: x3+x42 <=1 
C134: x3+x43 <=1 
C135: x3+x44-y3_44 <=1 
C136: x3+x46-y3_46 <=1 
C137: x3+x47 <=1 
C138: x3+x48 <=1 
C139: x3+x50-y3_50 <=1 
C140: x3+x51 <=1 
C141: x3+x52 <=1 
C142: x3+x56-y3_56 <=1 
C143: x3+x57-y3_57 <=1 
C144: x3+x58-y3_58 <=1 
C145: x3+x60 <=1 
C146: x4+x5 <=1 
C147: x4+x7 <=1 
C148: x4+x8-y4_8 <=1 
C149: x4+x13 <=1 
C150: x4+x14-y4_14 <=1 
C151: x4+x16-y4_16 <=1 
C152: x4+x17-y4_17 <=1 
C153: x4+x19-y4_19 <=1 
C154: x4+x21 <=1 
C155: x4+x22-y4_22 <=1 
C156: x4+x23-y4_23 <=1 
C157: x4+x24 <=1 
C158: x4+x28 <=1 
C159: x4+x29 <=1 
C160: x4+x30-y4_30 <=1 
C161: x4+x31 <=1 
C162: x4+x34 <=1 
C163: x4+x35-y4_35 <=1 
C164: x4+x36-y4_36 <=1 
C165: x4+x40-y4_40 <=1 
C166: x4+x42 <=1 
C167: x4+x43-y4_43 <=1 
C168: x4+x44-y4_44 <=1 
C169: x4+x45-y4_45 <=1 
C170: x4+x46 <=1 
C171: x4+x47 <=1 
C172: x4+x50 <=1 
C173: x4+x53 <=1 
C174: x4+x54-y4_54 <=1 
C175: x4+x55-y4_55 <=1 
C176: x4+x57-y4_57 <=1 
C177: x4+x59-y4_59 <=1 
C178: x4+x60 <=1 
C179: x5+x9-y5_9 <=1 
C180: x5+x10 <=1 
C181: x5+x11-y5_11 <=1 
C182: x5+x13 <=1 
C183: x5+x15 <=1 
C184: x5+x16 <=1 
C185: x5+x17-y5_17 <=1 
C186: x5+x18 <=1 
C187: x5+x20 <=1 
C188: x5+x21-y5_21 <=1 
C189: x5+x23 <=1 
C190: x5+x24 <=1 
C191: x5+x25 <=1 
C192: x5+x26 <=1 
C193: x5+x30-y5_30 <=1 
C194: x5+x31 <=1 
C195: x5+x32-y5_32 <=1 
C196: x5+x35 <=1 
C197: x5+x37 <=1 
C198: x5+x38 <=1 
C199: x5+x39 <=1 
C200: x5+x40 <=1 
C201: x5+x41-y5_41 <=1 
C202: x5+x43 <=1 
C203: x5+x45 <=1 
C204: x5+x46 <=1 
C205: x5+x47 <=1 
C206: x5+x48 <=1 
C207: x5+x50 <=1 
C208: x5+x51 <=1 
C209: x5+x53 <=1 
C210: x5+x56-y5_56 <=1 
C211: x5+x57-y5_57 <=1 
C212: x5+x58 <=1 
C213: x5+x59 <=1 
C214: x5+x60-y5_60 <=1 
C215: x6+x8-y6_8 <=1 
C216: x6+x10-y6_10 <=1 
C217: x6+x11 <=1 
C218: x6+x13-y6_13 <=1 
C219: x6+x14-y6_14 <=1 
C220: x6+x15-y6_15 <=1 
C221: x6+x16 <=1 
C222: x6+x21-y6_21 <=1 
C223: x6+x23-y6_23 <=1 
C224: x6+x27-y6_27 <=1 
C225: x6+x29 <=1 
C226: x6+x30 <=1 
C227: x6+x36 <=1 
C228: x6+x37-y6_37 <=1 
C229: x6+x38-y6_38 <=1 
C230: x6+x39-y6_39 <=1 
C231: x6+x40 <=1 
C232: x6+x43-y6_43 <=1 
C233: x6+x45-y6_45 <=1 
C234: x6+x47 <=1 
C235: x6+x48-y6_48 <=1 
C236: x6+x51-y6_51 <=1 
C237: x6+x52 <=1 
C238: x6+x53 <=1 
C239: x6+x57 <=1 
C240: x6+x58 <=1 
C241: x6+x60 <=1 
C242: x7+x9-y7_9 <=1 
C243: x7+x10 <=1 
C244: x7+x11-y7_11 <=1 
C245: x7+x12-y7_12 <=1 
C246: x7+x14 <=1 
C247: x7+x15-y7_15 <=1 
C248: x7+x16 <=1 
C249: x7+x18-y7_18 <=1 
C250: x7+x19-y7_19 <=1 
C251: x7+x24-y7_24 <=1 
C252: x7+x25-y7_25 <=1 
C253: x7+x26 <=1 
C254: x7+x28 <=1 
C255: x7+x29 <=1 
C256: x7+x31-y7_31 <=1 
C257: x7+x32-y7_32 <=1 
C258: x7+x33-y7_33 <=1 
C259: x7+x35-y7_35 <=1 
C260: x7+x36 <=1 
C261: x7+x38 <=1 
C262: x7+x40-y7_40 <=1 
C263: x7+x41-y7_41 <=1 
C264: x7+x43-y7_43 <=1 
C265: x7+x44 <=1 
C266: x7+x46 <=1 
C267: x7+x47 <=1 
C268: x7+x48 <=1 
C269: x7+x51 <=1 
C270: x7+x54-y7_54 <=1 
C271: x7+x55-y7_55 <=1 
C272: x7+x57 <=1 
C273: x7+x58-y7_58 <=1 
C274: x7+x59-y7_59 <=1 
C275: x7+x60 <=1 
C276: x8+x11 <=1 
C277: x8+x13 <=1 
C278: x8+x15-y8_15 <=1 
C279: x8+x18 <=1 
C280: x8+x23 <=1 
C281: x8+x24-y8_24 <=1 
C282: x8+x25-y8_25 <=1 
C283: x8+x27-y8_27 <=1 
C284: x8+x28 <=1 
C285: x8+x30-y8_30 <=1 
C286: x8+x32 <=1 
C287: x8+x33 <=1 
C288: x8+x35-y8_35 <=1 
C289: x8+x36 <=1 
C290: x8+x41 <=1 
C291: x8+x42 <=1 
C292: x8+x43 <=1 
C293: x8+x46-y8_46 <=1 
C294: x8+x48-y8_48 <=1 
C295: x8+x50 <=1 
C296: x8+x51-y8_51 <=1 
C297: x8+x52 <=1 
C298: x8+x55-y8_55 <=1 
C299: x8+x59-y8_59 <=1 
C300: x9+x11-y9_11 <=1 
C301: x9+x13-y9_13 <=1 
C302: x9+x14 <=1 
C303: x9+x19-y9_19 <=1 
C304: x9+x21-y9_21 <=1 
C305: x9+x22 <=1 
C306: x9+x25-y9_25 <=1 
C307: x9+x26-y9_26 <=1 
C308: x9+x30-y9_30 <=1 
C309: x9+x31-y9_31 <=1 
C310: x9+x32 <=1 
C311: x9+x33 <=1 
C312: x9+x34 <=1 
C313: x9+x35-y9_35 <=1 
C314: x9+x36-y9_36 <=1 
C315: x9+x37 <=1 
C316: x9+x39 <=1 
C317: x9+x41 <=1 
C318: x9+x49-y9_49 <=1 
C319: x9+x50 <=1 
C320: x9+x56 <=1 
C321: x9+x58-y9_58 <=1 
C322: x9+x59-y9_59 <=1 
C323: x9+x60-y9_60 <=1 
C324: x10+x11 <=1 
C325: x10+x12 <=1 
C326: x10+x16-y10_16 <=1 
C327: x10+x17 <=1 
C328: x10+x19-y10_19 <=1 
C329: x10+x21-y10_21 <=1 
C330: x10+x22-y10_22 <=1 
C331: x10+x26-y10_26 <=1 
C332: x10+x27 <=1 
C333: x10+x28 <=1 
C334: x10+x29-y10_29 <=1 
C335: x10+x34 <=1 
C336: x10+x35-y10_35 <=1 
C337: x10+x37 <=1 
C338: x10+x40 <=1 
C339: x10+x41-y10_41 <=1 
C340: x10+x43-y10_43 <=1 
C341: x10+x47-y10_47 <=1 
C342: x10+x48-y10_48 <=1 
C343: x10+x50 <=1 
C344: x10+x52 <=1 
C345: x10+x53-y10_53 <=1 
C346: x10+x54 <=1 
C347: x10+x56-y10_56 <=1 
C348: x10+x57-y10_57 <=1 
C349: x11+x12 <=1 
C350: x11+x13 <=1 
C351: x11+x15-y11_15 <=1 
C352: x11+x16-y11_16 <=1 
C353: x11+x17-y11_17 <=1 
C354: x11+x18 <=1 
C355: x11+x20 <=1 
C356: x11+x21 <=1 
C357: x11+x22 <=1 
C358: x11+x23 <=1 
C359: x11+x27 <=1 
C360: x11+x28-y11_28 <=1 
C361: x11+x29 <=1 
C362: x11+x30 <=1 
C363: x11+x33 <=1 
C364: x11+x34-y11_34 <=1 
C365: x11+x35 <=1 
C366: x11+x37 <=1 
C367: x11+x38-y11_38 <=1 
C368: x11+x40 <=1 
C369: x11+x42 <=1 
C370: x11+x43 <=1 
C371: x11+x44 <=1 
C372: x11+x45 <=1 
C373: x11+x46-y11_46 <=1 
C374: x11+x47-y11_47 <=1 
C375: x11+x48-y11_48 <=1 
C376: x11+x51-y11_51 <=1 
C377: x11+x53-y11_53 <=1 
C378: x11+x54 <=1 
C379: x11+x55 <=1 
C380: x11+x56-y11_56 <=1 
C381: x11+x58 <=1 
C382: x11+x59-y11_59 <=1 
C383: x11+x60 <=1 
C384: x12+x13 <=1 
C385: x12+x14-y12_14 <=1 
C386: x12+x15 <=1 
C387: x12+x17 <=1 
C388: x12+x18-y12_18 <=1 
C389: x12+x19-y12_19 <=1 
C390: x12+x20-y12_20 <=1 
C391: x12+x21 <=1 
C392: x12+x25 <=1 
C393: x12+x26 <=1 
C394: x12+x29 <=1 
C395: x12+x31-y12_31 <=1 
C396: x12+x32 <=1 
C397: x12+x33 <=1 
C398: x12+x34 <=1 
C399: x12+x36-y12_36 <=1 
C400: x12+x37-y12_37 <=1 
C401: x12+x39-y12_39 <=1 
C402: x12+x40-y12_40 <=1 
C403: x12+x41 <=1 
C404: x12+x42-y12_42 <=1 
C405: x12+x43-y12_43 <=1 
C406: x12+x44-y12_44 <=1 
C407: x12+x45 <=1 
C408: x12+x46 <=1 
C409: x12+x47-y12_47 <=1 
C410: x12+x48 <=1 
C411: x12+x49 <=1 
C412: x12+x51 <=1 
C413: x12+x52 <=1 
C414: x12+x54-y12_54 <=1 
C415: x12+x57-y12_57 <=1 
C416: x12+x58 <=1 
C417: x12+x59 <=1 
C418: x13+x14-y13_14 <=1 
C419: x13+x15-y13_15 <=1 
C420: x13+x16 <=1 
C421: x13+x17 <=1 
C422: x13+x18-y13_18 <=1 
C423: x13+x19-y13_19 <=1 
C424: x13+x20 <=1 
C425: x13+x25 <=1 
C426: x13+x26-y13_26 <=1 
C427: x13+x27 <=1 
C428: x13+x31 <=1 
C429: x13+x32 <=1 
C430: x13+x33-y13_33 <=1 
C431: x13+x34-y13_34 <=1 
C432: x13+x35 <=1 
C433: x13+x36-y13_36 <=1 
C434: x13+x38-y13_38 <=1 
C435: x13+x39 <=1 
C436: x13+x40-y13_40 <=1 
C437: x13+x42-y13_42 <=1 
C438: x13+x44-y13_44 <=1 
C439: x13+x46 <=1 
C440: x13+x48 <=1 
C441: x13+x49-y13_49 <=1 
C442: x13+x54 <=1 
C443: x13+x57 <=1 
C444: x13+x58-y13_58 <=1 
C445: x13+x59-y13_59 <=1 
C446: x13+x60 <=1 
C447: x14+x15-y14_15 <=1 
C448: x14+x16-y14_16 <=1 
C449: x14+x17-y14_17 <=1 
C450: x14+x18-y14_18 <=1 
C451: x14+x19 <=1 
C452: x14+x20 <=1 
C453: x14+x21-y14_21 <=1 
C454: x14+x22 <=1 
C455: x14+x28-y14_28 <=1 
C456: x14+x29 <=1 
C457: x14+x30-y14_30 <=1 
C458: x14+x31 <=1 
C459: x14+x33 <=1 
C460: x14+x34-y14_34 <=1 
C461: x14+x35 <=1 
C462: x14+x38 <=1 
C463: x14+x41 <=1 
C464: x14+x42 <=1 
C465: x14+x43-y14_43 <=1 
C466: x14+x44-y14_44 <=1 
C467: x14+x45-y14_45 <=1 
C468: x14+x46 <=1 
C469: x14+x48 <=1 
C470: x14+x50-y14_50 <=1 
C471: x14+x51 <=1 
C472: x14+x52-y14_52 <=1 
C473: x14+x53 <=1 
C474: x14+x54-y14_54 <=1 
C475: x14+x55-y14_55 <=1 
C476: x14+x57 <=1 
C477: x15+x16-y15_16 <=1 
C478: x15+x20-y15_20 <=1 
C479: x15+x23 <=1 
C480: x15+x25 <=1 
C481: x15+x27 <=1 
C482: x15+x28 <=1 
C483: x15+x29-y15_29 <=1 
C484: x15+x30-y15_30 <=1 
C485: x15+x33 <=1 
C486: x15+x35 <=1 
C487: x15+x38 <=1 
C488: x15+x39 <=1 
C489: x15+x40 <=1 
C490: x15+x42 <=1 
C491: x15+x45 <=1 
C492: x15+x46-y15_46 <=1 
C493: x15+x47-y15_47 <=1 
C494: x15+x49 <=1 
C495: x15+x50 <=1 
C496: x15+x51 <=1 
C497: x15+x52-y15_52 <=1 
C498: x15+x55 <=1 
C499: x15+x57 <=1 
C500: x15+x58 <=1 
C501: x15+x60-y15_60 <=1 
C502: x16+x17 <=1 
C503: x16+x20 <=1 
C504: x16+x21-y16_21 <=1 
C505: x16+x23 <=1 
C506: x16+x25-y16_25 <=1 
C507: x16+x26-y16_26 <=1 
C508: x16+x27 <=1 
C509: x16+x28 <=1 
C510: x16+x29 <=1 
C511: x16+x30 <=1 
C512: x16+x31-y16_31 <=1 
C513: x16+x32 <=1 
C514: x16+x33-y16_33 <=1 
C515: x16+x34-y16_34 <=1 
C516: x16+x36 <=1 
C517: x16+x37 <=1 
C518: x16+x38-y16_38 <=1 
C519: x16+x40-y16_40 <=1 
C520: x16+x41 <=1 
C521: x16+x42 <=1 
C522: x16+x43 <=1 
C523: x16+x45-y16_45 <=1 
C524: x16+x46 <=1 
C525: x16+x47-y16_47 <=1 
C526: x16+x48 <=1 
C527: x16+x51-y16_51 <=1 
C528: x16+x54 <=1 
C529: x16+x55-y16_55 <=1 
C530: x16+x59-y16_59 <=1 
C531: x16+x60 <=1 
C532: x17+x19 <=1 
C533: x17+x23 <=1 
C534: x17+x24 <=1 
C535: x17+x25 <=1 
C536: x17+x26 <=1 
C537: x17+x27 <=1 
C538: x17+x28 <=1 
C539: x17+x29 <=1 
C540: x17+x31 <=1 
C541: x17+x33 <=1 
C542: x17+x34 <=1 
C543: x17+x35-y17_35 <=1 
C544: x17+x36 <=1 
C545: x17+x37 <=1 
C546: x17+x39 <=1 
C547: x17+x42 <=1 
C548: x17+x44 <=1 
C549: x17+x45 <=1 
C550: x17+x46 <=1 
C551: x17+x47-y17_47 <=1 
C552: x17+x50-y17_50 <=1 
C553: x17+x51-y17_51 <=1 
C554: x17+x53-y17_53 <=1 
C555: x17+x54-y17_54 <=1 
C556: x17+x56 <=1 
C557: x17+x57 <=1 
C558: x17+x58 <=1 
C559: x17+x60-y17_60 <=1 
C560: x18+x19-y18_19 <=1 
C561: x18+x23 <=1 
C562: x18+x24-y18_24 <=1 
C563: x18+x27 <=1 
C564: x18+x29-y18_29 <=1 
C565: x18+x30-y18_30 <=1 
C566: x18+x31 <=1 
C567: x18+x32 <=1 
C568: x18+x33 <=1 
C569: x18+x34 <=1 
C570: x18+x37-y18_37 <=1 
C571: x18+x38-y18_38 <=1 
C572: x18+x42-y18_42 <=1 
C573: x18+x48 <=1 
C574: x18+x49 <=1 
C575: x18+x50 <=1 
C576: x18+x51 <=1 
C577: x18+x52 <=1 
C578: x18+x53-y18_53 <=1 
C579: x18+x54 <=1 
C580: x18+x57-y18_57 <=1 
C581: x18+x59 <=1 
C582: x19+x21 <=1 
C583: x19+x22 <=1 
C584: x19+x23-y19_23 <=1 
C585: x19+x27 <=1 
C586: x19+x30-y19_30 <=1 
C587: x19+x32 <=1 
C588: x19+x33 <=1 
C589: x19+x34 <=1 
C590: x19+x38-y19_38 <=1 
C591: x19+x39 <=1 
C592: x19+x40 <=1 
C593: x19+x42-y19_42 <=1 
C594: x19+x43 <=1 
C595: x19+x44 <=1 
C596: x19+x46-y19_46 <=1 
C597: x19+x48-y19_48 <=1 
C598: x19+x49 <=1 
C599: x19+x51-y19_51 <=1 
C600: x19+x52-y19_52 <=1 
C601: x19+x54 <=1 
C602: x19+x56 <=1 
C603: x19+x59 <=1 
C604: x20+x21-y20_21 <=1 
C605: x20+x22-y20_22 <=1 
C606: x20+x23 <=1 
C607: x20+x27 <=1 
C608: x20+x28 <=1 
C609: x20+x31 <=1 
C610: x20+x32-y20_32 <=1 
C611: x20+x34 <=1 
C612: x20+x36-y20_36 <=1 
C613: x20+x37-y20_37 <=1 
C614: x20+x38-y20_38 <=1 
C615: x20+x41 <=1 
C616: x20+x42 <=1 
C617: x20+x43 <=1 
C618: x20+x44 <=1 
C619: x20+x45-y20_45 <=1 
C620: x20+x46-y20_46 <=1 
C621: x20+x47-y20_47 <=1 
C622: x20+x49-y20_49 <=1 
C623: x20+x50 <=1 
C624: x20+x51 <=1 
C625: x20+x52-y20_52 <=1 
C626: x20+x53-y20_53 <=1 
C627: x20+x54-y20_54 <=1 
C628: x20+x56 <=1 
C629: x20+x59-y20_59 <=1 
C630: x21+x22-y21_22 <=1 
C631: x21+x23 <=1 
C632: x21+x24-y21_24 <=1 
C633: x21+x25 <=1 
C634: x21+x26-y21_26 <=1 
C635: x21+x32 <=1 
C636: x21+x33-y21_33 <=1 
C637: x21+x34-y21_34 <=1 
C638: x21+x35-y21_35 <=1 
C639: x21+x36-y21_36 <=1 
C640: x21+x37-y21_37 <=1 
C641: x21+x40 <=1 
C642: x21+x41 <=1 
C643: x21+x42-y21_42 <=1 
C644: x21+x43 <=1 
C645: x21+x44-y21_44 <=1 
C646: x21+x46-y21_46 <=1 
C647: x21+x47-y21_47 <=1 
C648: x21+x49-y21_49 <=1 
C649: x21+x50 <=1 
C650: x21+x54-y21_54 <=1 
C651: x21+x56-y21_56 <=1 
C652: x21+x58 <=1 
C653: x21+x59-y21_59 <=1 
C654: x22+x23-y22_23 <=1 
C655: x22+x24 <=1 
C656: x22+x27 <=1 
C657: x22+x32-y22_32 <=1 
C658: x22+x34-y22_34 <=1 
C659: x22+x36-y22_36 <=1 
C660: x22+x42-y22_42 <=1 
C661: x22+x46-y22_46 <=1 
C662: x22+x48 <=1 
C663: x22+x49 <=1 
C664: x22+x50 <=1 
C665: x22+x51-y22_51 <=1 
C666: x22+x52-y22_52 <=1 
C667: x22+x54 <=1 
C668: x22+x55 <=1 
C669: x22+x57-y22_57 <=1 
C670: x22+x59 <=1 
C671: x22+x60-y22_60 <=1 
C672: x23+x24-y23_24 <=1 
C673: x23+x27-y23_27 <=1 
C674: x23+x29-y23_29 <=1 
C675: x23+x30 <=1 
C676: x23+x32 <=1 
C677: x23+x33-y23_33 <=1 
C678: x23+x35 <=1 
C679: x23+x36-y23_36 <=1 
C680: x23+x39-y23_39 <=1 
C681: x23+x40-y23_40 <=1 
C682: x23+x42 <=1 
C683: x23+x43-y23_43 <=1 
C684: x23+x44-y23_44 <=1 
C685: x23+x47-y23_47 <=1 
C686: x23+x48-y23_48 <=1 
C687: x23+x49-y23_49 <=1 
C688: x23+x52 <=1 
C689: x23+x53-y23_53 <=1 
C690: x23+x55 <=1 
C691: x23+x56-y23_56 <=1 
C692: x23+x58-y23_58 <=1 
C693: x23+x60 <=1 
C694: x24+x26-y24_26 <=1 
C695: x24+x27 <=1 
C696: x24+x28 <=1 
C697: x24+x29-y24_29 <=1 
C698: x24+x30 <=1 
C699: x24+x31-y24_31 <=1 
C700: x24+x32 <=1 
C701: x24+x35-y24_35 <=1 
C702: x24+x37-y24_37 <=1 
C703: x24+x39-y24_39 <=1 
C704: x24+x41 <=1 
C705: x24+x45-y24_45 <=1 
C706: x24+x47-y24_47 <=1 
C707: x24+x49 <=1 
C708: x24+x50 <=1 
C709: x24+x53 <=1 
C710: x24+x55 <=1 
C711: x24+x56 <=1 
C712: x24+x57-y24_57 <=1 
C713: x24+x58-y24_58 <=1 
C714: x24+x59-y24_59 <=1 
C715: x24+x60 <=1 
C716: x25+x27 <=1 
C717: x25+x28 <=1 
C718: x25+x29-y25_29 <=1 
C719: x25+x31-y25_31 <=1 
C720: x25+x32 <=1 
C721: x25+x34-y25_34 <=1 
C722: x25+x35-y25_35 <=1 
C723: x25+x37-y25_37 <=1 
C724: x25+x39 <=1 
C725: x25+x40 <=1 
C726: x25+x42-y25_42 <=1 
C727: x25+x44-y25_44 <=1 
C728: x25+x45 <=1 
C729: x25+x49-y25_49 <=1 
C730: x25+x50 <=1 
C731: x25+x51-y25_51 <=1 
C732: x25+x52 <=1 
C733: x25+x53 <=1 
C734: x25+x54 <=1 
C735: x25+x55-y25_55 <=1 
C736: x25+x56 <=1 
C737: x25+x57 <=1 
C738: x25+x58 <=1 
C739: x25+x60 <=1 
C740: x26+x28 <=1 
C741: x26+x29-y26_29 <=1 
C742: x26+x30 <=1 
C743: x26+x32 <=1 
C744: x26+x33 <=1 
C745: x26+x34-y26_34 <=1 
C746: x26+x35-y26_35 <=1 
C747: x26+x36-y26_36 <=1 
C748: x26+x40-y26_40 <=1 
C749: x26+x41-y26_41 <=1 
C750: x26+x42-y26_42 <=1 
C751: x26+x43-y26_43 <=1 
C752: x26+x44 <=1 
C753: x26+x47-y26_47 <=1 
C754: x26+x49-y26_49 <=1 
C755: x26+x52-y26_52 <=1 
C756: x26+x53 <=1 
C757: x26+x54 <=1 
C758: x26+x56 <=1 
C759: x26+x58 <=1 
C760: x27+x28 <=1 
C761: x27+x29 <=1 
C762: x27+x30-y27_30 <=1 
C763: x27+x33-y27_33 <=1 
C764: x27+x35 <=1 
C765: x27+x36 <=1 
C766: x27+x37-y27_37 <=1 
C767: x27+x38-y27_38 <=1 
C768: x27+x39-y27_39 <=1 
C769: x27+x42 <=1 
C770: x27+x45 <=1 
C771: x27+x46-y27_46 <=1 
C772: x27+x48 <=1 
C773: x27+x49 <=1 
C774: x27+x51-y27_51 <=1 
C775: x27+x53-y27_53 <=1 
C776: x27+x55-y27_55 <=1 
C777: x27+x60-y27_60 <=1 
C778: x28+x29-y28_29 <=1 
C779: x28+x33-y28_33 <=1 
C780: x28+x35 <=1 
C781: x28+x36-y28_36 <=1 
C782: x28+x37 <=1 
C783: x28+x39-y28_39 <=1 
C784: x28+x40-y28_40 <=1 
C785: x28+x41-y28_41 <=1 
C786: x28+x45-y28_45 <=1 
C787: x28+x46-y28_46 <=1 
C788: x28+x47-y28_47 <=1 
C789: x28+x49 <=1 
C790: x28+x52 <=1 
C791: x28+x56 <=1 
C792: x28+x58 <=1 
C793: x28+x59 <=1 
C794: x28+x60-y28_60 <=1 
C795: x29+x30 <=1 
C796: x29+x33 <=1 
C797: x29+x34 <=1 
C798: x29+x35-y29_35 <=1 
C799: x29+x36 <=1 
C800: x29+x37 <=1 
C801: x29+x38-y29_38 <=1 
C802: x29+x39 <=1 
C803: x29+x41-y29_41 <=1 
C804: x29+x42 <=1 
C805: x29+x44-y29_44 <=1 
C806: x29+x45-y29_45 <=1 
C807: x29+x46-y29_46 <=1 
C808: x29+x48-y29_48 <=1 
C809: x29+x49 <=1 
C810: x29+x50 <=1 
C811: x29+x51-y29_51 <=1 
C812: x29+x53 <=1 
C813: x29+x54-y29_54 <=1 
C814: x29+x56 <=1 
C815: x29+x59 <=1 
C816: x29+x60-y29_60 <=1 
C817: x30+x31-y30_31 <=1 
C818: x30+x34-y30_34 <=1 
C819: x30+x38 <=1 
C820: x30+x39-y30_39 <=1 
C821: x30+x41 <=1 
C822: x30+x43 <=1 
C823: x30+x44-y30_44 <=1 
C824: x30+x45-y30_45 <=1 
C825: x30+x46 <=1 
C826: x30+x47 <=1 
C827: x30+x48-y30_48 <=1 
C828: x30+x51-y30_51 <=1 
C829: x30+x54-y30_54 <=1 
C830: x30+x55-y30_55 <=1 
C831: x30+x57 <=1 
C832: x30+x58 <=1 
C833: x30+x59-y30_59 <=1 
C834: x31+x32 <=1 
C835: x31+x35 <=1 
C836: x31+x36-y31_36 <=1 
C837: x31+x37 <=1 
C838: x31+x38-y31_38 <=1 
C839: x31+x39-y31_39 <=1 
C840: x31+x40 <=1 
C841: x31+x42 <=1 
C842: x31+x43-y31_43 <=1 
C843: x31+x45-y31_45 <=1 
C844: x31+x48 <=1 
C845: x31+x49-y31_49 <=1 
C846: x31+x50 <=1 
C847: x31+x51-y31_51 <=1 
C848: x31+x52-y31_52 <=1 
C849: x31+x53-y31_53 <=1 
C850: x31+x54-y31_54 <=1 
C851: x31+x57-y31_57 <=1 
C852: x31+x59-y31_59 <=1 
C853: x32+x33-y32_33 <=1 
C854: x32+x35 <=1 
C855: x32+x36 <=1 
C856: x32+x38-y32_38 <=1 
C857: x32+x40 <=1 
C858: x32+x41 <=1 
C859: x32+x42-y32_42 <=1 
C860: x32+x43-y32_43 <=1 
C861: x32+x45 <=1 
C862: x32+x48-y32_48 <=1 
C863: x32+x49 <=1 
C864: x32+x51-y32_51 <=1 
C865: x32+x52-y32_52 <=1 
C866: x32+x53 <=1 
C867: x32+x56 <=1 
C868: x32+x57-y32_57 <=1 
C869: x32+x58-y32_58 <=1 
C870: x32+x59-y32_59 <=1 
C871: x32+x60 <=1 
C872: x33+x34 <=1 
C873: x33+x36 <=1 
C874: x33+x37 <=1 
C875: x33+x38 <=1 
C876: x33+x39-y33_39 <=1 
C877: x33+x41 <=1 
C878: x33+x42 <=1 
C879: x33+x44 <=1 
C880: x33+x45 <=1 
C881: x33+x46-y33_46 <=1 
C882: x33+x48-y33_48 <=1 
C883: x33+x49 <=1 
C884: x33+x50-y33_50 <=1 
C885: x33+x51 <=1 
C886: x33+x52 <=1 
C887: x33+x54 <=1 
C888: x33+x57-y33_57 <=1 
C889: x33+x60-y33_60 <=1 
C890: x34+x36-y34_36 <=1 
C891: x34+x39-y34_39 <=1 
C892: x34+x41 <=1 
C893: x34+x42-y34_42 <=1 
C894: x34+x43-y34_43 <=1 
C895: x34+x44 <=1 
C896: x34+x45-y34_45 <=1 
C897: x34+x46 <=1 
C898: x34+x48 <=1 
C899: x34+x49-y34_49 <=1 
C900: x34+x51 <=1 
C901: x34+x52-y34_52 <=1 
C902: x34+x53-y34_53 <=1 
C903: x34+x54 <=1 
C904: x34+x55-y34_55 <=1 
C905: x34+x56 <=1 
C906: x34+x58 <=1 
C907: x34+x60-y34_60 <=1 
C908: x35+x36 <=1 
C909: x35+x37-y35_37 <=1 
C910: x35+x39-y35_39 <=1 
C911: x35+x40-y35_40 <=1 
C912: x35+x43-y35_43 <=1 
C913: x35+x45 <=1 
C914: x35+x46 <=1 
C915: x35+x47 <=1 
C916: x35+x48-y35_48 <=1 
C917: x35+x50 <=1 
C918: x35+x51-y35_51 <=1 
C919: x35+x55-y35_55 <=1 
C920: x35+x56 <=1 
C921: x35+x58-y35_58 <=1 
C922: x35+x59-y35_59 <=1 
C923: x36+x37-y36_37 <=1 
C924: x36+x38 <=1 
C925: x36+x39-y36_39 <=1 
C926: x36+x41-y36_41 <=1 
C927: x36+x43 <=1 
C928: x36+x45 <=1 
C929: x36+x46 <=1 
C930: x36+x49 <=1 
C931: x36+x51-y36_51 <=1 
C932: x36+x52 <=1 
C933: x36+x53 <=1 
C934: x36+x54-y36_54 <=1 
C935: x36+x57 <=1 
C936: x36+x58-y36_58 <=1 
C937: x36+x59-y36_59 <=1 
C938: x36+x60-y36_60 <=1 
C939: x37+x39 <=1 
C940: x37+x40 <=1 
C941: x37+x41 <=1 
C942: x37+x42 <=1 
C943: x37+x43 <=1 
C944: x37+x44-y37_44 <=1 
C945: x37+x47 <=1 
C946: x37+x49 <=1 
C947: x37+x51 <=1 
C948: x37+x54 <=1 
C949: x37+x56-y37_56 <=1 
C950: x37+x57 <=1 
C951: x37+x60 <=1 
C952: x38+x41 <=1 
C953: x38+x43 <=1 
C954: x38+x46 <=1 
C955: x38+x47-y38_47 <=1 
C956: x38+x48-y38_48 <=1 
C957: x38+x49-y38_49 <=1 
C958: x38+x50-y38_50 <=1 
C959: x38+x51-y38_51 <=1 
C960: x38+x54 <=1 
C961: x38+x55-y38_55 <=1 
C962: x38+x56 <=1 
C963: x38+x58 <=1 
C964: x38+x59-y38_59 <=1 
C965: x38+x60 <=1 
C966: x39+x40-y39_40 <=1 
C967: x39+x41 <=1 
C968: x39+x42 <=1 
C969: x39+x45-y39_45 <=1 
C970: x39+x46-y39_46 <=1 
C971: x39+x50-y39_50 <=1 
C972: x39+x51 <=1 
C973: x39+x52 <=1 
C974: x39+x54 <=1 
C975: x39+x55-y39_55 <=1 
C976: x39+x56 <=1 
C977: x39+x57 <=1 
C978: x40+x41-y40_41 <=1 
C979: x40+x42 <=1 
C980: x40+x44 <=1 
C981: x40+x46 <=1 
C982: x40+x47 <=1 
C983: x40+x48 <=1 
C984: x40+x49 <=1 
C985: x40+x51 <=1 
C986: x40+x53 <=1 
C987: x40+x54-y40_54 <=1 
C988: x40+x55 <=1 
C989: x40+x56 <=1 
C990: x40+x58-y40_58 <=1 
C991: x40+x59-y40_59 <=1 
C992: x40+x60-y40_60 <=1 
C993: x41+x42 <=1 
C994: x41+x45-y41_45 <=1 
C995: x41+x46 <=1 
C996: x41+x47 <=1 
C997: x41+x48-y41_48 <=1 
C998: x41+x49 <=1 
C999: x41+x50-y41_50 <=1 
C1000: x41+x51-y41_51 <=1 
C1001: x41+x52 <=1 
C1002: x41+x55-y41_55 <=1 
C1003: x41+x59 <=1 
C1004: x41+x60-y41_60 <=1 
C1005: x42+x44 <=1 
C1006: x42+x45 <=1 
C1007: x42+x46-y42_46 <=1 
C1008: x42+x49 <=1 
C1009: x42+x51-y42_51 <=1 
C1010: x42+x53-y42_53 <=1 
C1011: x42+x55-y42_55 <=1 
C1012: x42+x56 <=1 
C1013: x42+x58 <=1 
C1014: x42+x59 <=1 
C1015: x43+x44-y43_44 <=1 
C1016: x43+x45-y43_45 <=1 
C1017: x43+x49 <=1 
C1018: x43+x53 <=1 
C1019: x43+x54-y43_54 <=1 
C1020: x43+x58 <=1 
C1021: x43+x59 <=1 
C1022: x43+x60-y43_60 <=1 
C1023: x44+x45 <=1 
C1024: x44+x46-y44_46 <=1 
C1025: x44+x49-y44_49 <=1 
C1026: x44+x50-y44_50 <=1 
C1027: x44+x51 <=1 
C1028: x44+x52 <=1 
C1029: x44+x53-y44_53 <=1 
C1030: x44+x54-y44_54 <=1 
C1031: x44+x55-y44_55 <=1 
C1032: x44+x56-y44_56 <=1 
C1033: x44+x57-y44_57 <=1 
C1034: x44+x58-y44_58 <=1 
C1035: x44+x59-y44_59 <=1 
C1036: x44+x60 <=1 
C1037: x45+x48-y45_48 <=1 
C1038: x45+x49 <=1 
C1039: x45+x51-y45_51 <=1 
C1040: x45+x53-y45_53 <=1 
C1041: x45+x57-y45_57 <=1 
C1042: x45+x58-y45_58 <=1 
C1043: x45+x59 <=1 
C1044: x45+x60-y45_60 <=1 
C1045: x46+x47 <=1 
C1046: x46+x48 <=1 
C1047: x46+x50-y46_50 <=1 
C1048: x46+x51 <=1 
C1049: x46+x52-y46_52 <=1 
C1050: x46+x53-y46_53 <=1 
C1051: x46+x54-y46_54 <=1 
C1052: x46+x55-y46_55 <=1 
C1053: x46+x56-y46_56 <=1 
C1054: x46+x57 <=1 
C1055: x46+x58 <=1 
C1056: x47+x50 <=1 
C1057: x47+x51 <=1 
C1058: x47+x55 <=1 
C1059: x47+x58-y47_58 <=1 
C1060: x47+x59-y47_59 <=1 
C1061: x47+x60-y47_60 <=1 
C1062: x48+x50-y48_50 <=1 
C1063: x48+x51 <=1 
C1064: x48+x53-y48_53 <=1 
C1065: x48+x55 <=1 
C1066: x48+x56 <=1 
C1067: x48+x59-y48_59 <=1 
C1068: x49+x51-y49_51 <=1 
C1069: x49+x54-y49_54 <=1 
C1070: x49+x55-y49_55 <=1 
C1071: x49+x56-y49_56 <=1 
C1072: x49+x57 <=1 
C1073: x49+x58-y49_58 <=1 
C1074: x49+x60-y49_60 <=1 
C1075: x50+x53 <=1 
C1076: x50+x54-y50_54 <=1 
C1077: x50+x55-y50_55 <=1 
C1078: x50+x56 <=1 
C1079: x50+x59 <=1 
C1080: x50+x60 <=1 
C1081: x51+x55 <=1 
C1082: x51+x57 <=1 
C1083: x51+x59-y51_59 <=1 
C1084: x51+x60 <=1 
C1085: x52+x53-y52_53 <=1 
C1086: x52+x57-y52_57 <=1 
C1087: x52+x58 <=1 
C1088: x53+x54-y53_54 <=1 
C1089: x53+x55-y53_55 <=1 
C1090: x53+x56 <=1 
C1091: x53+x57 <=1 
C1092: x53+x58-y53_58 <=1 
C1093: x53+x59 <=1 
C1094: x54+x55 <=1 
C1095: x54+x57 <=1 
C1096: x54+x60 <=1 
C1097: x55+x58-y55_58 <=1 
C1098: x55+x59 <=1 
C1099: x55+x60 <=1 
C1100: x56+x57 <=1 
C1101: x56+x59-y56_59 <=1 
C1102: x57+x58 <=1 
C1103: x57+x59 <=1 
C1104: x57+x60 <=1 
C1105: x58+x59 <=1 

binary
x0
x1
x2
x3
x4
x5
x6
x7
x8
x9
x10
x11
x12
x13
x14
x15
x16
x17
x18
x19
x20
x21
x22
x23
x24
x25
x26
x27
x28
x29
x30
x31
x32
x33
x34
x35
x36
x37
x38
x39
x40
x41
x42
x43
x44
x45
x46
x47
x48
x49
x50
x51
x52
x53
x54
x55
x56
x57
x58
x59
x60
