problem_generation/data/GISP/train/er_n=61_m=1105_p=0.60_SET2_setparam=100.00_alpha=0.50_323.sol
objective value:                                 1271
x8                                                  1 	(obj:100)
x9                                                  1 	(obj:100)
x10                                                 1 	(obj:100)
x19                                                 1 	(obj:100)
x20                                                 1 	(obj:100)
x24                                                 1 	(obj:100)
x26                                                 1 	(obj:100)
x29                                                 1 	(obj:100)
x38                                                 1 	(obj:100)
x45                                                 1 	(obj:100)
x47                                                 1 	(obj:100)
x48                                                 1 	(obj:100)
x57                                                 1 	(obj:100)
y29_45                                              1 	(obj:-1)
y10_26                                              1 	(obj:-1)
y24_45                                              1 	(obj:-1)
y20_38                                              1 	(obj:-1)
y20_47                                              1 	(obj:-1)
y24_26                                              1 	(obj:-1)
y9_19                                               1 	(obj:-1)
y45_48                                              1 	(obj:-1)
y45_57                                              1 	(obj:-1)
y26_29                                              1 	(obj:-1)
y26_47                                              1 	(obj:-1)
y10_48                                              1 	(obj:-1)
y10_57                                              1 	(obj:-1)
y29_48                                              1 	(obj:-1)
y10_29                                              1 	(obj:-1)
y10_47                                              1 	(obj:-1)
y29_38                                              1 	(obj:-1)
y10_19                                              1 	(obj:-1)
y24_57                                              1 	(obj:-1)
y24_29                                              1 	(obj:-1)
y24_47                                              1 	(obj:-1)
y20_45                                              1 	(obj:-1)
y9_26                                               1 	(obj:-1)
y8_48                                               1 	(obj:-1)
y19_48                                              1 	(obj:-1)
y38_48                                              1 	(obj:-1)
y19_38                                              1 	(obj:-1)
y38_47                                              1 	(obj:-1)
y8_24                                               1 	(obj:-1)
